param Riesgos:=
0[1]	1		3		6	
1[1]
2[1]	1	
3[1]	1		2		5	
4[1]	4	
5[1]	2		4		5	
6[1]	2		3	
7[1]	3		4	
8[1]	4		5		6	
9[1]
10[1]	2		3	
11[1]	2		5		6	
12[1]
13[1]
14[1]
0[2]
1[2]	1		4		6	
2[2]	2		4		6	
3[2]	1		4	
0[3]	2		4	
1[3]
2[3]	3		4		5	
3[3]	1		3	
4[3]	1	
5[3]
6[3]	4	
7[3]	1		2		3	
8[3]	2		3		6	
9[3]	1	
10[3]	2		3		5	
